(set-logic QF_BV)
(declare-fun _substvar_1224_ () (_ BitVec 32))
(declare-fun _substvar_459_ () (_ BitVec 16))
(declare-fun _substvar_478_ () (_ BitVec 16))
(declare-fun _substvar_1250_ () (_ BitVec 16))
(declare-fun _substvar_499_ () (_ BitVec 16))
(declare-fun _substvar_494_ () (_ BitVec 16))
(declare-fun _substvar_1251_ () (_ BitVec 16))
(declare-fun _substvar_473_ () (_ BitVec 16))
(declare-fun _substvar_500_ () (_ BitVec 16))
(declare-fun _substvar_479_ () (_ BitVec 16))
(declare-fun _substvar_483_ () (_ BitVec 16))
(declare-fun _substvar_489_ () (_ BitVec 16))
(declare-fun _substvar_464_ () (_ BitVec 16))
(assert (let ((?v_0 (bvadd _substvar_1224_ (_ bv4 32))) (?v_17 ((_ zero_extend 16) _substvar_1251_))) (let ((?v_15 (bvadd ?v_0 (bvsub (bvadd (bvadd (bvadd ?v_0 (_ bv61 32)) ?v_17) ((_ zero_extend 16) _substvar_1250_)) ?v_0)))) (let ((?v_1 (bvadd ?v_15 (_ bv4 32))) (?v_23 ((_ zero_extend 16) _substvar_500_))) (let ((?v_21 (bvadd ?v_1 (bvsub (bvadd (bvadd (bvadd ?v_1 (_ bv53 32)) ?v_23) ((_ zero_extend 16) _substvar_499_)) ?v_1)))) (let ((?v_2 (bvadd ?v_21 (_ bv4 32)))) (let ((?v_27 (bvadd ?v_2 (bvsub (bvadd (bvadd (bvadd ?v_2 (_ bv70 32)) (_ bv0 32)) ((_ zero_extend 16) _substvar_494_)) ?v_2)))) (let ((?v_3 (bvadd ?v_27 (_ bv4 32)))) (let ((?v_33 (bvadd ?v_3 (bvsub (bvadd (bvadd (bvadd ?v_3 (_ bv59 32)) (_ bv0 32)) ((_ zero_extend 16) _substvar_489_)) ?v_3)))) (let ((?v_4 (bvadd ?v_33 (_ bv4 32)))) (let ((?v_39 (bvadd ?v_4 (bvsub (bvadd (bvadd (bvadd ?v_4 (_ bv63 32)) (_ bv0 32)) ((_ zero_extend 16) _substvar_483_)) ?v_4)))) (let ((?v_5 (bvadd ?v_39 (_ bv4 32))) (?v_46 ((_ zero_extend 16) _substvar_479_))) (let ((?v_44 (bvadd ?v_5 (bvsub (bvadd (bvadd (bvadd ?v_5 (_ bv64 32)) ?v_46) ((_ zero_extend 16) _substvar_478_)) ?v_5)))) (let ((?v_6 (bvadd ?v_44 (_ bv4 32)))) (let ((?v_51 (bvadd ?v_6 (bvsub (bvadd (bvadd (bvadd ?v_6 (_ bv59 32)) (_ bv0 32)) ((_ zero_extend 16) _substvar_473_)) ?v_6)))) (let ((?v_7 (bvadd ?v_51 (_ bv4 32)))) (let ((?v_53 (bvadd ?v_7 (_ bv0 32)))) (let ((?v_8 (bvadd ?v_53 (_ bv4 32)))) (let ((?v_55 (bvadd ?v_8 (bvsub (bvadd (bvadd (bvadd ?v_8 (_ bv62 32)) (_ bv0 32)) ((_ zero_extend 16) _substvar_464_)) ?v_8)))) (let ((?v_9 (bvadd ?v_55 (_ bv4 32)))) (let ((?v_57 (bvadd ?v_9 (_ bv0 32)))) (let ((?v_10 (bvadd ?v_57 (_ bv4 32)))) (let ((?v_58 (bvadd ?v_10 (bvsub (bvadd (bvadd (bvadd ?v_10 (_ bv57 32)) (_ bv0 32)) ((_ zero_extend 16) _substvar_459_)) ?v_10)))) (let ((?v_59 (bvadd ?v_58 (_ bv4 32)))) (and true true true true true true true true true true true true true true true true true true true true true true true true (= (bvadd ?v_59 (_ bv42 32)) (_ bv4294967295 32)) true true true true true true true true true true true true true true true true (bvule _substvar_1224_ (_ bv11151 32)) true true true true true true true true true true true true true true true true true true true true true true true true true true true true true true true true true true true true true true true true true true true true true true true true true true true true true true true true true true true true true true true true true true true true true true true true true true true true true true true true true true true true true true true true true true true)))))))))))))))))))))))))
(check-sat)
(exit)
